/*********************************************
 * OPL 12.6.0.0 Data
 * Author: Adrian Rodriguez Bazaga, Pau Rodriguez Esmerats
 * Creation Date: 06/12/2017 at 23:02:54
 *********************************************/

nNurses=100;
maxConsec=2;
maxPresence=7;
maxHours=5;
minHours=1;
hours=24;
demand= [21 18 23 29 18 23 29 19 14 12 0 6 0 6 1 5 1 2 1 0 13 23 11 21  ];
